c THIS FORMULA IS GENERATED BY CNF
c 
c atomics
c X_PI <= 42.09_1_n:1
c X_PI <= 42.09_2_p:2
c X_PI <= 54.92_2_n:3
c C_1_1:4
c C_2_1:5
c X_PI <= 48.12_2_p:6
c X_PI <= 54.92_2_s:7
c X_PI <= 42.09_1_p:8
c X_PI <= 48.12_1_s:9
c X_PI <= 42.09_1_s:10
c X_PI <= 54.92_1_p:11
c X_PI <= 42.09_2_n:12
c X_PI <= 48.12_2_n:13
c X_PI <= 48.12_2_s:14
c X_PI <= 54.92_1_s:15
c X_PI <= 54.92_1_n:16
c X_PI <= 42.09_2_s:17
c X_PI <= 48.12_1_p:18
c X_PI <= 48.12_1_n:19
c X_PI <= 54.92_2_p:20
c end atomics
p cnf 20 172
8 -8 -8 0
8 -8 -1 0
8 -8 10 0
8 1 -8 0
8 1 -1 0
8 1 10 0
8 -10 -8 0
8 -10 -1 0
8 -10 10 0
-1 -8 -8 0
-1 -8 -1 0
-1 -8 10 0
-1 1 -8 0
-1 1 -1 0
-1 1 10 0
-1 -10 -8 0
-1 -10 -1 0
-1 -10 10 0
-10 -8 -8 0
-10 -8 -1 0
-10 -8 10 0
-10 1 -8 0
-10 1 -1 0
-10 1 10 0
-10 -10 -8 0
-10 -10 -1 0
-10 -10 10 0
18 -18 -18 0
18 -18 -19 0
18 -18 9 0
18 19 -18 0
18 19 -19 0
18 19 9 0
18 -9 -18 0
18 -9 -19 0
18 -9 9 0
-19 -18 -18 0
-19 -18 -19 0
-19 -18 9 0
-19 19 -18 0
-19 19 -19 0
-19 19 9 0
-19 -9 -18 0
-19 -9 -19 0
-19 -9 9 0
-9 -18 -18 0
-9 -18 -19 0
-9 -18 9 0
-9 19 -18 0
-9 19 -19 0
-9 19 9 0
-9 -9 -18 0
-9 -9 -19 0
-9 -9 9 0
11 -11 -11 0
11 -11 -16 0
11 -11 15 0
11 16 -11 0
11 16 -16 0
11 16 15 0
11 -15 -11 0
11 -15 -16 0
11 -15 15 0
-16 -11 -11 0
-16 -11 -16 0
-16 -11 15 0
-16 16 -11 0
-16 16 -16 0
-16 16 15 0
-16 -15 -11 0
-16 -15 -16 0
-16 -15 15 0
-15 -11 -11 0
-15 -11 -16 0
-15 -11 15 0
-15 16 -11 0
-15 16 -16 0
-15 16 15 0
-15 -15 -11 0
-15 -15 -16 0
-15 -15 15 0
2 -2 -2 0
2 -2 -12 0
2 -2 17 0
2 12 -2 0
2 12 -12 0
2 12 17 0
2 -17 -2 0
2 -17 -12 0
2 -17 17 0
-12 -2 -2 0
-12 -2 -12 0
-12 -2 17 0
-12 12 -2 0
-12 12 -12 0
-12 12 17 0
-12 -17 -2 0
-12 -17 -12 0
-12 -17 17 0
-17 -2 -2 0
-17 -2 -12 0
-17 -2 17 0
-17 12 -2 0
-17 12 -12 0
-17 12 17 0
-17 -17 -2 0
-17 -17 -12 0
-17 -17 17 0
6 -6 -6 0
6 -6 -13 0
6 -6 14 0
6 13 -6 0
6 13 -13 0
6 13 14 0
6 -14 -6 0
6 -14 -13 0
6 -14 14 0
-13 -6 -6 0
-13 -6 -13 0
-13 -6 14 0
-13 13 -6 0
-13 13 -13 0
-13 13 14 0
-13 -14 -6 0
-13 -14 -13 0
-13 -14 14 0
-14 -6 -6 0
-14 -6 -13 0
-14 -6 14 0
-14 13 -6 0
-14 13 -13 0
-14 13 14 0
-14 -14 -6 0
-14 -14 -13 0
-14 -14 14 0
20 -20 -20 0
20 -20 -3 0
20 -20 7 0
20 3 -20 0
20 3 -3 0
20 3 7 0
20 -7 -20 0
20 -7 -3 0
20 -7 7 0
-3 -20 -20 0
-3 -20 -3 0
-3 -20 7 0
-3 3 -20 0
-3 3 -3 0
-3 3 7 0
-3 -7 -20 0
-3 -7 -3 0
-3 -7 7 0
-7 -20 -20 0
-7 -20 -3 0
-7 -20 7 0
-7 3 -20 0
-7 3 -3 0
-7 3 7 0
-7 -7 -20 0
-7 -7 -3 0
-7 -7 7 0
-10 -9 -15 0
-17 -14 -7 0
1 19 16 0
12 13 3 0
-8 -4 0
-18 -4 0
-11 -4 0
-2 -5 0
-6 -5 0
-20 -5 0
4 5 0
